1,46207,43908,23287,31205,49019,47505,43531,24163,17627,33711,48410,25152,32181,37950,12119,45652,47219,27545,19566,16923,
2,46207,43908,23287,31205,49019,47505,43531,24163,17627,33711,48410,25152,32181,37950,12119,45652,47219,27545,1117,1578,
3,46207,43908,23287,31205,49019,47505,43531,24163,17627,33711,48410,25152,32181,37950,12119,45652,47219,27545,3708,29080,
4,46207,43908,23287,31205,49019,47505,43531,24163,17627,33711,48410,25152,32181,37950,12119,45652,47219,27545,24397,24749,
5,46207,43908,23287,31205,49019,47505,43531,24163,17627,33711,48410,25152,32181,37950,12119,45652,47219,27545,12834,6911,
6,46207,43908,23287,31205,49019,47505,43531,24163,17627,33711,48410,25152,32181,37950,12119,45652,47219,27545,16835,244,
7,46207,43908,23287,31205,49019,47505,43531,24163,17627,33711,48410,25152,32181,37950,12119,45652,47219,27545,20576,5008,
8,46207,43908,23287,31205,49019,47505,43531,24163,17627,33711,48410,25152,32181,37950,12119,45652,47219,27545,13146,13826,
9,46207,43908,23287,31205,49019,47505,43531,24163,17627,33711,48410,25152,32181,37950,12119,45652,47219,27545,9890,3848,
10,46207,43908,23287,31205,49019,47505,43531,24163,17627,33711,48410,25152,32181,37950,12119,45652,47219,27545,2672,25431,
11,46207,43908,23287,31205,49019,47505,43531,24163,17627,33711,48410,25152,32181,37950,12119,45652,47219,27545,22754,731,
12,46207,43908,23287,31205,49019,47505,43531,24163,17627,33711,48410,25152,32181,37950,12119,45652,47219,27545,33489,4542,
13,46207,43908,23287,31205,49019,47505,43531,24163,17627,33711,48410,25152,32181,37950,12119,45652,47219,27545,11875,13083,
14,46207,43908,23287,31205,49019,47505,43531,24163,17627,33711,48410,25152,32181,37950,12119,45652,47219,27545,15097,10913,
15,46207,43908,23287,31205,49019,47505,43531,24163,17627,33711,48410,25152,32181,37950,12119,45652,47219,27545,10130,13089,
16,46207,43908,23287,31205,49019,47505,43531,24163,17627,33711,48410,25152,32181,37950,12119,45652,47219,27545,10208,6420,
17,46207,43908,23287,31205,49019,47505,43531,24163,17627,33711,48410,25152,32181,37950,12119,45652,47219,27545,5704,25215,
18,46207,43908,23287,31205,49019,47505,43531,24163,17627,33711,48410,25152,32181,37950,12119,45652,47219,27545,33916,22022,
19,46207,43908,23287,31205,49019,47505,43531,24163,17627,33711,48410,25152,32181,37950,12119,45652,47219,27545,2817,2077,
20,46207,43908,23287,31205,49019,47505,43531,24163,17627,33711,48410,25152,32181,37950,12119,45652,47219,27545,12375,4133,
21,46207,43908,23287,31205,49019,47505,43531,24163,17627,33711,48410,25152,32181,37950,12119,45652,47219,27545,33988,13984,
22,46207,43908,23287,31205,49019,47505,43531,24163,17627,33711,48410,25152,32181,37950,12119,45652,47219,27545,2318,4890,
23,46207,43908,23287,31205,49019,47505,43531,24163,17627,33711,48410,25152,32181,37950,12119,45652,47219,27545,24354,37844,
24,46207,43908,23287,31205,49019,47505,43531,24163,17627,33711,48410,25152,32181,37950,12119,45652,47219,27545,10218,29372,
25,46207,43908,23287,31205,49019,47505,43531,24163,17627,33711,48410,25152,32181,37950,12119,45652,47219,27545,2263,16586,
26,46207,43908,23287,31205,49019,47505,43531,24163,17627,33711,48410,25152,32181,37950,12119,45652,47219,27545,26457,17902,
27,46207,43908,23287,31205,49019,47505,43531,24163,17627,33711,48410,25152,32181,37950,12119,45652,47219,27545,25865,10795,
28,46207,43908,23287,31205,49019,47505,43531,24163,17627,33711,48410,25152,32181,37950,12119,45652,47219,27545,5851,2231,
29,46207,43908,23287,31205,49019,47505,43531,24163,17627,33711,48410,25152,32181,37950,12119,45652,47219,27545,7344,32141,
30,46207,43908,23287,31205,49019,47505,43531,24163,17627,33711,48410,25152,32181,37950,12119,45652,47219,27545,16696,7229,
31,46207,43908,23287,31205,49019,47505,43531,24163,17627,33711,48410,25152,32181,37950,12119,45652,47219,27545,9297,11490,
32,46207,43908,23287,31205,49019,47505,43531,24163,17627,33711,48410,25152,32181,37950,12119,45652,47219,27545,2552,27292,
33,46207,43908,23287,31205,49019,47505,43531,24163,17627,33711,48410,25152,32181,37950,12119,45652,47219,27545,20481,1703,
34,46207,43908,23287,31205,49019,47505,43531,24163,17627,33711,48410,25152,32181,37950,12119,45652,47219,27545,5047,1422,
35,46207,43908,23287,31205,49019,47505,43531,24163,17627,33711,48410,25152,32181,37950,12119,45652,47219,27545,6253,8324,
36,46207,43908,23287,31205,49019,47505,43531,24163,17627,33711,48410,25152,32181,37950,12119,45652,47219,27545,2017,26200,
37,46207,43908,23287,31205,49019,47505,43531,24163,17627,33711,48410,25152,32181,37950,12119,45652,47219,27545,44532,4589,
38,46207,43908,23287,31205,49019,47505,43531,24163,17627,33711,48410,25152,32181,37950,12119,45652,47219,27545,4089,719,
39,46207,43908,23287,31205,49019,47505,43531,24163,17627,33711,48410,25152,32181,37950,12119,45652,47219,27545,13882,719,
40,46207,43908,23287,31205,49019,47505,43531,24163,17627,33711,48410,25152,32181,37950,12119,45652,47219,27545,20287,1393,
41,46207,43908,23287,31205,49019,47505,43531,24163,17627,33711,48410,25152,32181,37950,12119,45652,47219,27545,30537,4251,
42,46207,43908,23287,31205,49019,47505,43531,24163,17627,33711,48410,25152,32181,37950,12119,45652,47219,27545,5078,6254,
43,46207,43908,23287,31205,49019,47505,43531,24163,17627,33711,48410,25152,32181,37950,12119,45652,47219,27545,9625,5441,
44,46207,43908,23287,31205,49019,47505,43531,24163,17627,33711,48410,25152,32181,37950,12119,45652,47219,27545,9491,11459,
45,46207,43908,23287,31205,49019,47505,43531,24163,17627,33711,48410,25152,32181,37950,12119,45652,47219,27545,1302,2320,
46,46207,43908,23287,31205,49019,47505,43531,24163,17627,33711,48410,25152,32181,37950,12119,45652,47219,27545,5039,23183,
47,46207,43908,23287,31205,49019,47505,43531,24163,17627,33711,48410,25152,32181,37950,12119,45652,47219,27545,4073,5235,
48,46207,43908,23287,31205,49019,47505,43531,24163,17627,33711,48410,25152,32181,37950,12119,45652,47219,27545,519,10146,
49,46207,43908,23287,31205,49019,47505,43531,24163,17627,33711,48410,25152,32181,37950,12119,45652,47219,27545,16576,30741,
50,46207,43908,23287,31205,49019,47505,43531,24163,17627,33711,48410,25152,32181,37950,12119,45652,47219,27545,18002,16878,
51,46207,43908,23287,31205,49019,47505,43531,24163,17627,33711,48410,25152,32181,37950,12119,45652,47219,27545,9644,23881,
52,46207,43908,23287,31205,49019,47505,43531,24163,17627,33711,48410,25152,32181,37950,12119,45652,47219,27545,142,13056,
53,46207,43908,23287,31205,49019,47505,43531,24163,17627,33711,48410,25152,32181,37950,12119,45652,47219,27545,4543,13207,
54,46207,43908,23287,31205,49019,47505,43531,24163,17627,33711,48410,25152,32181,37950,12119,45652,47219,27545,33756,24345,
55,46207,43908,23287,31205,49019,47505,43531,24163,17627,33711,48410,25152,32181,37950,12119,45652,47219,27545,954,3669,
56,46207,43908,23287,31205,49019,47505,43531,24163,17627,33711,48410,25152,32181,37950,12119,45652,47219,27545,12932,25369,
57,46207,43908,23287,31205,49019,47505,43531,24163,17627,33711,48410,25152,32181,37950,12119,45652,47219,27545,2397,419,
58,46207,43908,23287,31205,49019,47505,43531,24163,17627,33711,48410,25152,32181,37950,12119,45652,47219,27545,12428,419,
59,46207,43908,23287,31205,49019,47505,43531,24163,17627,33711,48410,25152,32181,37950,12119,45652,47219,27545,36897,34335,
60,46207,43908,23287,31205,49019,47505,43531,24163,17627,33711,48410,25152,32181,37950,12119,45652,47219,27545,24429,412,
61,46207,43908,23287,31205,49019,47505,43531,24163,17627,33711,48410,25152,32181,37950,12119,45652,47219,27545,5979,9114,
62,46207,43908,23287,31205,49019,47505,43531,24163,17627,33711,48410,25152,32181,37950,12119,45652,47219,27545,31162,3894,
63,46207,43908,23287,31205,49019,47505,43531,24163,17627,33711,48410,25152,32181,37950,12119,45652,47219,27545,16979,417,
64,46207,43908,23287,31205,49019,47505,43531,24163,17627,33711,48410,25152,32181,37950,12119,45652,47219,27545,5399,42636,
65,46207,43908,23287,31205,49019,47505,43531,24163,17627,33711,48410,25152,32181,37950,12119,45652,47219,27545,11600,31923,
66,46207,43908,23287,31205,49019,47505,43531,24163,17627,33711,48410,25152,32181,37950,12119,45652,47219,27545,10477,19942,
67,46207,43908,23287,31205,49019,47505,43531,24163,17627,33711,48410,25152,32181,37950,12119,45652,47219,27545,35400,10541,
68,46207,43908,23287,31205,49019,47505,43531,24163,17627,33711,48410,25152,32181,37950,12119,45652,47219,27545,1930,12920,
69,46207,43908,23287,31205,49019,47505,43531,24163,17627,33711,48410,25152,32181,37950,12119,45652,47219,27545,41779,20112,
70,46207,43908,23287,31205,49019,47505,43531,24163,17627,33711,48410,25152,32181,37950,12119,45652,47219,27545,1449,37725,
71,46207,43908,23287,31205,49019,47505,43531,24163,17627,33711,48410,25152,32181,37950,12119,45652,47219,27545,4688,15409,
72,46207,43908,23287,31205,49019,47505,43531,24163,17627,33711,48410,25152,32181,37950,12119,45652,47219,27545,17432,11505,
73,46207,43908,23287,31205,49019,47505,43531,24163,17627,33711,48410,25152,32181,37950,12119,45652,47219,27545,720,15627,
74,46207,43908,23287,31205,49019,47505,43531,24163,17627,33711,48410,25152,32181,37950,12119,45652,47219,27545,843,16676,
75,46207,43908,23287,31205,49019,47505,43531,24163,17627,33711,48410,25152,32181,37950,12119,45652,47219,27545,843,51607,
76,46207,43908,23287,31205,49019,47505,43531,24163,17627,33711,48410,25152,32181,37950,12119,45652,47219,27545,55888,45675,
77,46207,43908,23287,31205,49019,47505,43531,24163,17627,33711,48410,25152,32181,37950,12119,45652,47219,27545,34286,21631,
78,46207,43908,23287,31205,49019,47505,43531,24163,17627,33711,48410,25152,32181,37950,12119,45652,47219,27545,19920,12334,
79,46207,43908,23287,31205,49019,47505,43531,24163,17627,33711,48410,25152,32181,37950,12119,45652,47219,27545,12873,20795,
80,46207,43908,23287,31205,49019,47505,43531,24163,17627,33711,48410,25152,32181,37950,12119,45652,47219,27545,13844,20491,
81,46207,43908,23287,31205,49019,47505,43531,24163,17627,33711,48410,25152,32181,37950,12119,45652,47219,27545,35051,15613,
82,46207,43908,23287,31205,49019,47505,43531,24163,17627,33711,48410,25152,32181,37950,12119,45652,47219,27545,18377,15616,
83,46207,43908,23287,31205,49019,47505,43531,24163,17627,33711,48410,25152,32181,37950,12119,45652,47219,27545,13938,16630,
84,46207,43908,23287,31205,49019,47505,43531,24163,17627,33711,48410,25152,32181,37950,12119,45652,47219,27545,22000,28300,
85,46207,43908,23287,31205,49019,47505,43531,24163,17627,33711,48410,25152,32181,37950,12119,45652,47219,27545,14405,21155,
86,46207,43908,23287,31205,49019,47505,43531,24163,17627,33711,48410,25152,32181,37950,12119,45652,47219,27545,43221,14567,
87,46207,43908,23287,31205,49019,47505,43531,24163,17627,33711,48410,25152,32181,37950,12119,45652,47219,27545,23668,11580,
88,46207,43908,23287,31205,49019,47505,43531,24163,17627,33711,48410,25152,32181,37950,12119,45652,47219,27545,14085,11580,
89,46207,43908,23287,31205,49019,47505,43531,24163,17627,33711,48410,25152,32181,37950,12119,45652,47219,27545,10575,18407,
90,46207,43908,23287,31205,49019,47505,43531,24163,17627,33711,48410,25152,32181,37950,12119,45652,47219,27545,23390,37878,
91,46207,43908,23287,31205,49019,47505,43531,24163,17627,33711,48410,25152,32181,37950,12119,45652,47219,27545,54490,24582,
92,46207,43908,23287,31205,49019,47505,43531,24163,17627,33711,48410,25152,32181,37950,12119,45652,47219,27545,24383,49768,
93,46207,43908,23287,31205,49019,47505,43531,24163,17627,33711,48410,25152,32181,37950,12119,45652,47219,27545,27998,15295,
94,46207,43908,23287,31205,49019,47505,43531,24163,17627,33711,48410,25152,32181,37950,12119,45652,47219,27545,10476,13626,
95,46207,43908,23287,31205,49019,47505,43531,24163,17627,33711,48410,25152,32181,37950,12119,45652,47219,27545,10476,13888,
96,46207,43908,23287,31205,49019,47505,43531,24163,17627,33711,48410,25152,32181,37950,12119,45652,47219,27545,25651,16406,
97,46207,43908,23287,31205,49019,47505,43531,24163,17627,33711,48410,25152,32181,37950,12119,45652,47219,27545,16238,51757,
98,46207,43908,23287,31205,49019,47505,43531,24163,17627,33711,48410,25152,32181,37950,12119,45652,47219,27545,16091,20922,
99,46207,43908,23287,31205,49019,47505,43531,24163,17627,33711,48410,25152,32181,37950,12119,45652,47219,27545,27356,23796,
100,46207,43908,23287,31205,49019,47505,43531,24163,17627,33711,48410,25152,32181,37950,12119,45652,47219,27545,56776,26990,
